c 154_3_checker.cnf
c
c field = 154
c formula set type = 3_checker
c
p cnf 4 58
300 
302 
304 
-308 
301 
303 
305 
-309 
302 
304 
308 
-300 
303 
305 
309 
-301 
302 
304 
308 
-310 
303 
305 
309 
-311 
304 
308 
310 
-302 
305 
309 
311 
-303 
304 
308 
310 
-312 
305 
309 
311 
-313 
308 
310 
312 
-304 
309 
311 
313 
-305 
308 
310 
312 
-314 
309 
311 
313 
-315 
216 
246 
276 
-186 
217 
247 
277 
-187 
216 
246 
276 
-336 
217 
247 
277 
-337 
246 
276 
336 
-216 
247 
277 
337 
-217 
246 
276 
336 
-366 
247 
277 
337 
-367 
276 
336 
366 
-246 
277 
337 
367 
-247 
276 
336 
366 
-396 
277 
337 
367 
-397 
336 
366 
396 
-276 
337 
367 
397 
-277 
336 
366 
396 
-426 
337 
367 
397 
-427 
210 
242 
274 
-338 
211 
243 
275 
-339 
242 
274 
338 
-210 
243 
275 
339 
-211 
242 
274 
338 
-370 
243 
275 
339 
-371 
274 
338 
370 
-242 
275 
339 
371 
-243 
274 
338 
370 
-402 
275 
339 
371 
-403 
338 
370 
402 
-274 
339 
371 
403 
-275 
338 
370 
402 
-434 
339 
371 
403 
-435 
222 
250 
278 
-194 
223 
251 
279 
-195 
222 
250 
278 
-334 
223 
251 
279 
-335 
250 
278 
334 
-222 
251 
279 
335 
-223 
250 
278 
334 
-362 
251 
279 
335 
-363 
278 
334 
362 
-250 
279 
335 
363 
-251 
278 
334 
362 
-390 
279 
335 
363 
-391 
334 
362 
390 
-278 
335 
363 
391 
-279 
